(declare-const a Real)
(declare-const b Real)
(declare-const c Real)
(assert (> a 0))
(assert (> b 0))
(assert (> c 0))
(assert (not (<= (* 3 (pow 2 -1)) (+ (* 1 (pow (* (pow c 3) (+ a b)) -1)) (* 1 (pow (* (pow a 3) (+ b c)) -1)) (* 1 (pow (* (pow b 3) (+ c a)) -1))))))
(check-sat)
(get-model)
(exit)